c not original file ! May have been modified for weighted vertex coloring problem (edges and vertices stay the same only weights may have been moved to an other file)
p edge 208 2247
e 1 2
e 1 3
e 1 4
e 1 5
e 1 6
e 1 7
e 1 8
e 1 9
e 1 10
e 1 11
e 1 12
e 1 13
e 1 14
e 1 27
e 1 35
e 1 45
e 1 68
e 1 79
e 1 104
e 1 139
e 1 149
e 1 159
e 1 171
e 1 183
e 1 196
e 2 3
e 2 4
e 2 5
e 2 6
e 2 7
e 2 8
e 2 9
e 2 10
e 2 11
e 2 12
e 2 13
e 2 15
e 2 28
e 2 46
e 2 56
e 2 69
e 2 92
e 2 105
e 2 114
e 2 160
e 2 184
e 2 197
e 3 4
e 3 5
e 3 6
e 3 7
e 3 8
e 3 9
e 3 10
e 3 11
e 3 12
e 3 13
e 3 29
e 3 36
e 3 47
e 3 57
e 3 70
e 3 93
e 3 127
e 3 140
e 3 150
e 3 185
e 4 5
e 4 6
e 4 7
e 4 8
e 4 9
e 4 10
e 4 11
e 4 12
e 4 13
e 4 17
e 4 59
e 4 72
e 4 81
e 4 94
e 4 107
e 4 129
e 4 141
e 4 162
e 4 173
e 5 6
e 5 7
e 5 8
e 5 9
e 5 10
e 5 11
e 5 12
e 5 13
e 5 30
e 5 82
e 5 95
e 5 130
e 5 142
e 5 186
e 5 198
e 6 7
e 6 8
e 6 9
e 6 10
e 6 11
e 6 12
e 6 13
e 6 18
e 6 31
e 6 48
e 6 60
e 6 73
e 6 83
e 6 96
e 6 108
e 6 116
e 6 143
e 6 163
e 6 174
e 6 187
e 6 199
e 7 8
e 7 9
e 7 10
e 7 11
e 7 12
e 7 13
e 7 19
e 7 38
e 7 49
e 7 61
e 7 74
e 7 97
e 7 117
e 7 151
e 7 164
e 7 200
e 8 9
e 8 10
e 8 11
e 8 12
e 8 13
e 8 21
e 8 63
e 8 84
e 8 98
e 8 119
e 8 132
e 8 153
e 8 188
e 8 201
e 9 10
e 9 11
e 9 12
e 9 13
e 9 22
e 9 51
e 9 75
e 9 85
e 9 99
e 9 110
e 9 120
e 9 133
e 9 145
e 9 154
e 9 166
e 9 176
e 9 189
e 9 202
e 10 11
e 10 12
e 10 13
e 10 23
e 10 33
e 10 64
e 10 87
e 10 112
e 10 122
e 10 135
e 10 178
e 10 191
e 10 203
e 11 12
e 11 13
e 11 24
e 11 34
e 11 41
e 11 52
e 11 77
e 11 88
e 11 101
e 11 136
e 11 156
e 11 167
e 11 192
e 11 204
e 12 13
e 12 42
e 12 53
e 12 89
e 12 103
e 12 113
e 12 124
e 12 137
e 12 147
e 12 157
e 12 169
e 12 180
e 12 193
e 12 206
e 13 43
e 13 54
e 13 66
e 13 90
e 13 125
e 13 138
e 13 181
e 13 194
e 13 207
e 14 15
e 14 16
e 14 17
e 14 18
e 14 19
e 14 20
e 14 21
e 14 22
e 14 23
e 14 24
e 14 25
e 14 26
e 14 27
e 14 35
e 14 45
e 14 68
e 14 79
e 14 104
e 14 139
e 14 149
e 14 159
e 14 171
e 14 183
e 14 196
e 15 16
e 15 17
e 15 18
e 15 19
e 15 20
e 15 21
e 15 22
e 15 23
e 15 24
e 15 25
e 15 26
e 15 28
e 15 46
e 15 56
e 15 69
e 15 92
e 15 105
e 15 114
e 15 160
e 15 184
e 15 197
e 16 17
e 16 18
e 16 19
e 16 20
e 16 21
e 16 22
e 16 23
e 16 24
e 16 25
e 16 26
e 16 37
e 16 58
e 16 71
e 16 80
e 16 106
e 16 115
e 16 128
e 16 161
e 16 172
e 17 18
e 17 19
e 17 20
e 17 21
e 17 22
e 17 23
e 17 24
e 17 25
e 17 26
e 17 59
e 17 72
e 17 81
e 17 94
e 17 107
e 17 129
e 17 141
e 17 162
e 17 173
e 18 19
e 18 20
e 18 21
e 18 22
e 18 23
e 18 24
e 18 25
e 18 26
e 18 31
e 18 48
e 18 60
e 18 73
e 18 83
e 18 96
e 18 108
e 18 116
e 18 143
e 18 163
e 18 174
e 18 187
e 18 199
e 19 20
e 19 21
e 19 22
e 19 23
e 19 24
e 19 25
e 19 26
e 19 38
e 19 49
e 19 61
e 19 74
e 19 97
e 19 117
e 19 151
e 19 164
e 19 200
e 20 21
e 20 22
e 20 23
e 20 24
e 20 25
e 20 26
e 20 39
e 20 50
e 20 62
e 20 109
e 20 118
e 20 131
e 20 144
e 20 152
e 20 165
e 20 175
e 21 22
e 21 23
e 21 24
e 21 25
e 21 26
e 21 63
e 21 84
e 21 98
e 21 119
e 21 132
e 21 153
e 21 188
e 21 201
e 22 23
e 22 24
e 22 25
e 22 26
e 22 51
e 22 75
e 22 85
e 22 99
e 22 110
e 22 120
e 22 133
e 22 145
e 22 154
e 22 166
e 22 176
e 22 189
e 22 202
e 23 24
e 23 25
e 23 26
e 23 33
e 23 64
e 23 87
e 23 112
e 23 122
e 23 135
e 23 178
e 23 191
e 23 203
e 24 25
e 24 26
e 24 34
e 24 41
e 24 52
e 24 77
e 24 88
e 24 101
e 24 136
e 24 156
e 24 167
e 24 192
e 24 204
e 25 26
e 25 65
e 25 78
e 25 102
e 25 123
e 25 146
e 25 168
e 25 179
e 25 205
e 26 44
e 26 55
e 26 67
e 26 91
e 26 126
e 26 148
e 26 158
e 26 170
e 26 182
e 26 195
e 26 208
e 27 28
e 27 29
e 27 30
e 27 31
e 27 32
e 27 33
e 27 34
e 27 35
e 27 45
e 27 68
e 27 79
e 27 104
e 27 139
e 27 149
e 27 159
e 27 171
e 27 183
e 27 196
e 28 29
e 28 30
e 28 31
e 28 32
e 28 33
e 28 34
e 28 46
e 28 56
e 28 69
e 28 92
e 28 105
e 28 114
e 28 160
e 28 184
e 28 197
e 29 30
e 29 31
e 29 32
e 29 33
e 29 34
e 29 36
e 29 47
e 29 57
e 29 70
e 29 93
e 29 127
e 29 140
e 29 150
e 29 185
e 30 31
e 30 32
e 30 33
e 30 34
e 30 82
e 30 95
e 30 130
e 30 142
e 30 186
e 30 198
e 31 32
e 31 33
e 31 34
e 31 48
e 31 60
e 31 73
e 31 83
e 31 96
e 31 108
e 31 116
e 31 143
e 31 163
e 31 174
e 31 187
e 31 199
e 32 33
e 32 34
e 32 40
e 32 76
e 32 86
e 32 100
e 32 111
e 32 121
e 32 134
e 32 155
e 32 177
e 32 190
e 33 34
e 33 64
e 33 87
e 33 112
e 33 122
e 33 135
e 33 178
e 33 191
e 33 203
e 34 41
e 34 52
e 34 77
e 34 88
e 34 101
e 34 136
e 34 156
e 34 167
e 34 192
e 34 204
e 35 36
e 35 37
e 35 38
e 35 39
e 35 40
e 35 41
e 35 42
e 35 43
e 35 44
e 35 45
e 35 68
e 35 79
e 35 104
e 35 139
e 35 149
e 35 159
e 35 171
e 35 183
e 35 196
e 36 37
e 36 38
e 36 39
e 36 40
e 36 41
e 36 42
e 36 43
e 36 44
e 36 47
e 36 57
e 36 70
e 36 93
e 36 127
e 36 140
e 36 150
e 36 185
e 37 38
e 37 39
e 37 40
e 37 41
e 37 42
e 37 43
e 37 44
e 37 58
e 37 71
e 37 80
e 37 106
e 37 115
e 37 128
e 37 161
e 37 172
e 38 39
e 38 40
e 38 41
e 38 42
e 38 43
e 38 44
e 38 49
e 38 61
e 38 74
e 38 97
e 38 117
e 38 151
e 38 164
e 38 200
e 39 40
e 39 41
e 39 42
e 39 43
e 39 44
e 39 50
e 39 62
e 39 109
e 39 118
e 39 131
e 39 144
e 39 152
e 39 165
e 39 175
e 40 41
e 40 42
e 40 43
e 40 44
e 40 76
e 40 86
e 40 100
e 40 111
e 40 121
e 40 134
e 40 155
e 40 177
e 40 190
e 41 42
e 41 43
e 41 44
e 41 52
e 41 77
e 41 88
e 41 101
e 41 136
e 41 156
e 41 167
e 41 192
e 41 204
e 42 43
e 42 44
e 42 53
e 42 89
e 42 103
e 42 113
e 42 124
e 42 137
e 42 147
e 42 157
e 42 169
e 42 180
e 42 193
e 42 206
e 43 44
e 43 54
e 43 66
e 43 90
e 43 125
e 43 138
e 43 181
e 43 194
e 43 207
e 44 55
e 44 67
e 44 91
e 44 126
e 44 148
e 44 158
e 44 170
e 44 182
e 44 195
e 44 208
e 45 46
e 45 47
e 45 48
e 45 49
e 45 50
e 45 51
e 45 52
e 45 53
e 45 54
e 45 55
e 45 68
e 45 79
e 45 104
e 45 139
e 45 149
e 45 159
e 45 171
e 45 183
e 45 196
e 46 47
e 46 48
e 46 49
e 46 50
e 46 51
e 46 52
e 46 53
e 46 54
e 46 55
e 46 56
e 46 69
e 46 92
e 46 105
e 46 114
e 46 160
e 46 184
e 46 197
e 47 48
e 47 49
e 47 50
e 47 51
e 47 52
e 47 53
e 47 54
e 47 55
e 47 57
e 47 70
e 47 93
e 47 127
e 47 140
e 47 150
e 47 185
e 48 49
e 48 50
e 48 51
e 48 52
e 48 53
e 48 54
e 48 55
e 48 60
e 48 73
e 48 83
e 48 96
e 48 108
e 48 116
e 48 143
e 48 163
e 48 174
e 48 187
e 48 199
e 49 50
e 49 51
e 49 52
e 49 53
e 49 54
e 49 55
e 49 61
e 49 74
e 49 97
e 49 117
e 49 151
e 49 164
e 49 200
e 50 51
e 50 52
e 50 53
e 50 54
e 50 55
e 50 62
e 50 109
e 50 118
e 50 131
e 50 144
e 50 152
e 50 165
e 50 175
e 51 52
e 51 53
e 51 54
e 51 55
e 51 75
e 51 85
e 51 99
e 51 110
e 51 120
e 51 133
e 51 145
e 51 154
e 51 166
e 51 176
e 51 189
e 51 202
e 52 53
e 52 54
e 52 55
e 52 77
e 52 88
e 52 101
e 52 136
e 52 156
e 52 167
e 52 192
e 52 204
e 53 54
e 53 55
e 53 89
e 53 103
e 53 113
e 53 124
e 53 137
e 53 147
e 53 157
e 53 169
e 53 180
e 53 193
e 53 206
e 54 55
e 54 66
e 54 90
e 54 125
e 54 138
e 54 181
e 54 194
e 54 207
e 55 67
e 55 91
e 55 126
e 55 148
e 55 158
e 55 170
e 55 182
e 55 195
e 55 208
e 56 57
e 56 58
e 56 59
e 56 60
e 56 61
e 56 62
e 56 63
e 56 64
e 56 65
e 56 66
e 56 67
e 56 69
e 56 92
e 56 105
e 56 114
e 56 160
e 56 184
e 56 197
e 57 58
e 57 59
e 57 60
e 57 61
e 57 62
e 57 63
e 57 64
e 57 65
e 57 66
e 57 67
e 57 70
e 57 93
e 57 127
e 57 140
e 57 150
e 57 185
e 58 59
e 58 60
e 58 61
e 58 62
e 58 63
e 58 64
e 58 65
e 58 66
e 58 67
e 58 71
e 58 80
e 58 106
e 58 115
e 58 128
e 58 161
e 58 172
e 59 60
e 59 61
e 59 62
e 59 63
e 59 64
e 59 65
e 59 66
e 59 67
e 59 72
e 59 81
e 59 94
e 59 107
e 59 129
e 59 141
e 59 162
e 59 173
e 60 61
e 60 62
e 60 63
e 60 64
e 60 65
e 60 66
e 60 67
e 60 73
e 60 83
e 60 96
e 60 108
e 60 116
e 60 143
e 60 163
e 60 174
e 60 187
e 60 199
e 61 62
e 61 63
e 61 64
e 61 65
e 61 66
e 61 67
e 61 74
e 61 97
e 61 117
e 61 151
e 61 164
e 61 200
e 62 63
e 62 64
e 62 65
e 62 66
e 62 67
e 62 109
e 62 118
e 62 131
e 62 144
e 62 152
e 62 165
e 62 175
e 63 64
e 63 65
e 63 66
e 63 67
e 63 84
e 63 98
e 63 119
e 63 132
e 63 153
e 63 188
e 63 201
e 64 65
e 64 66
e 64 67
e 64 87
e 64 112
e 64 122
e 64 135
e 64 178
e 64 191
e 64 203
e 65 66
e 65 67
e 65 78
e 65 102
e 65 123
e 65 146
e 65 168
e 65 179
e 65 205
e 66 67
e 66 90
e 66 125
e 66 138
e 66 181
e 66 194
e 66 207
e 67 91
e 67 126
e 67 148
e 67 158
e 67 170
e 67 182
e 67 195
e 67 208
e 68 69
e 68 70
e 68 71
e 68 72
e 68 73
e 68 74
e 68 75
e 68 76
e 68 77
e 68 78
e 68 79
e 68 104
e 68 139
e 68 149
e 68 159
e 68 171
e 68 183
e 68 196
e 69 70
e 69 71
e 69 72
e 69 73
e 69 74
e 69 75
e 69 76
e 69 77
e 69 78
e 69 92
e 69 105
e 69 114
e 69 160
e 69 184
e 69 197
e 70 71
e 70 72
e 70 73
e 70 74
e 70 75
e 70 76
e 70 77
e 70 78
e 70 93
e 70 127
e 70 140
e 70 150
e 70 185
e 71 72
e 71 73
e 71 74
e 71 75
e 71 76
e 71 77
e 71 78
e 71 80
e 71 106
e 71 115
e 71 128
e 71 161
e 71 172
e 72 73
e 72 74
e 72 75
e 72 76
e 72 77
e 72 78
e 72 81
e 72 94
e 72 107
e 72 129
e 72 141
e 72 162
e 72 173
e 73 74
e 73 75
e 73 76
e 73 77
e 73 78
e 73 83
e 73 96
e 73 108
e 73 116
e 73 143
e 73 163
e 73 174
e 73 187
e 73 199
e 74 75
e 74 76
e 74 77
e 74 78
e 74 97
e 74 117
e 74 151
e 74 164
e 74 200
e 75 76
e 75 77
e 75 78
e 75 85
e 75 99
e 75 110
e 75 120
e 75 133
e 75 145
e 75 154
e 75 166
e 75 176
e 75 189
e 75 202
e 76 77
e 76 78
e 76 86
e 76 100
e 76 111
e 76 121
e 76 134
e 76 155
e 76 177
e 76 190
e 77 78
e 77 88
e 77 101
e 77 136
e 77 156
e 77 167
e 77 192
e 77 204
e 78 102
e 78 123
e 78 146
e 78 168
e 78 179
e 78 205
e 79 80
e 79 81
e 79 82
e 79 83
e 79 84
e 79 85
e 79 86
e 79 87
e 79 88
e 79 89
e 79 90
e 79 91
e 79 104
e 79 139
e 79 149
e 79 159
e 79 171
e 79 183
e 79 196
e 80 81
e 80 82
e 80 83
e 80 84
e 80 85
e 80 86
e 80 87
e 80 88
e 80 89
e 80 90
e 80 91
e 80 106
e 80 115
e 80 128
e 80 161
e 80 172
e 81 82
e 81 83
e 81 84
e 81 85
e 81 86
e 81 87
e 81 88
e 81 89
e 81 90
e 81 91
e 81 94
e 81 107
e 81 129
e 81 141
e 81 162
e 81 173
e 82 83
e 82 84
e 82 85
e 82 86
e 82 87
e 82 88
e 82 89
e 82 90
e 82 91
e 82 95
e 82 130
e 82 142
e 82 186
e 82 198
e 83 84
e 83 85
e 83 86
e 83 87
e 83 88
e 83 89
e 83 90
e 83 91
e 83 96
e 83 108
e 83 116
e 83 143
e 83 163
e 83 174
e 83 187
e 83 199
e 84 85
e 84 86
e 84 87
e 84 88
e 84 89
e 84 90
e 84 91
e 84 98
e 84 119
e 84 132
e 84 153
e 84 188
e 84 201
e 85 86
e 85 87
e 85 88
e 85 89
e 85 90
e 85 91
e 85 99
e 85 110
e 85 120
e 85 133
e 85 145
e 85 154
e 85 166
e 85 176
e 85 189
e 85 202
e 86 87
e 86 88
e 86 89
e 86 90
e 86 91
e 86 100
e 86 111
e 86 121
e 86 134
e 86 155
e 86 177
e 86 190
e 87 88
e 87 89
e 87 90
e 87 91
e 87 112
e 87 122
e 87 135
e 87 178
e 87 191
e 87 203
e 88 89
e 88 90
e 88 91
e 88 101
e 88 136
e 88 156
e 88 167
e 88 192
e 88 204
e 89 90
e 89 91
e 89 103
e 89 113
e 89 124
e 89 137
e 89 147
e 89 157
e 89 169
e 89 180
e 89 193
e 89 206
e 90 91
e 90 125
e 90 138
e 90 181
e 90 194
e 90 207
e 91 126
e 91 148
e 91 158
e 91 170
e 91 182
e 91 195
e 91 208
e 92 93
e 92 94
e 92 95
e 92 96
e 92 97
e 92 98
e 92 99
e 92 100
e 92 101
e 92 102
e 92 103
e 92 105
e 92 114
e 92 160
e 92 184
e 92 197
e 93 94
e 93 95
e 93 96
e 93 97
e 93 98
e 93 99
e 93 100
e 93 101
e 93 102
e 93 103
e 93 127
e 93 140
e 93 150
e 93 185
e 94 95
e 94 96
e 94 97
e 94 98
e 94 99
e 94 100
e 94 101
e 94 102
e 94 103
e 94 107
e 94 129
e 94 141
e 94 162
e 94 173
e 95 96
e 95 97
e 95 98
e 95 99
e 95 100
e 95 101
e 95 102
e 95 103
e 95 130
e 95 142
e 95 186
e 95 198
e 96 97
e 96 98
e 96 99
e 96 100
e 96 101
e 96 102
e 96 103
e 96 108
e 96 116
e 96 143
e 96 163
e 96 174
e 96 187
e 96 199
e 97 98
e 97 99
e 97 100
e 97 101
e 97 102
e 97 103
e 97 117
e 97 151
e 97 164
e 97 200
e 98 99
e 98 100
e 98 101
e 98 102
e 98 103
e 98 119
e 98 132
e 98 153
e 98 188
e 98 201
e 99 100
e 99 101
e 99 102
e 99 103
e 99 110
e 99 120
e 99 133
e 99 145
e 99 154
e 99 166
e 99 176
e 99 189
e 99 202
e 100 101
e 100 102
e 100 103
e 100 111
e 100 121
e 100 134
e 100 155
e 100 177
e 100 190
e 101 102
e 101 103
e 101 136
e 101 156
e 101 167
e 101 192
e 101 204
e 102 103
e 102 123
e 102 146
e 102 168
e 102 179
e 102 205
e 103 113
e 103 124
e 103 137
e 103 147
e 103 157
e 103 169
e 103 180
e 103 193
e 103 206
e 104 105
e 104 106
e 104 107
e 104 108
e 104 109
e 104 110
e 104 111
e 104 112
e 104 113
e 104 139
e 104 149
e 104 159
e 104 171
e 104 183
e 104 196
e 105 106
e 105 107
e 105 108
e 105 109
e 105 110
e 105 111
e 105 112
e 105 113
e 105 114
e 105 160
e 105 184
e 105 197
e 106 107
e 106 108
e 106 109
e 106 110
e 106 111
e 106 112
e 106 113
e 106 115
e 106 128
e 106 161
e 106 172
e 107 108
e 107 109
e 107 110
e 107 111
e 107 112
e 107 113
e 107 129
e 107 141
e 107 162
e 107 173
e 108 109
e 108 110
e 108 111
e 108 112
e 108 113
e 108 116
e 108 143
e 108 163
e 108 174
e 108 187
e 108 199
e 109 110
e 109 111
e 109 112
e 109 113
e 109 118
e 109 131
e 109 144
e 109 152
e 109 165
e 109 175
e 110 111
e 110 112
e 110 113
e 110 120
e 110 133
e 110 145
e 110 154
e 110 166
e 110 176
e 110 189
e 110 202
e 111 112
e 111 113
e 111 121
e 111 134
e 111 155
e 111 177
e 111 190
e 112 113
e 112 122
e 112 135
e 112 178
e 112 191
e 112 203
e 113 124
e 113 137
e 113 147
e 113 157
e 113 169
e 113 180
e 113 193
e 113 206
e 114 115
e 114 116
e 114 117
e 114 118
e 114 119
e 114 120
e 114 121
e 114 122
e 114 123
e 114 124
e 114 125
e 114 126
e 114 160
e 114 184
e 114 197
e 115 116
e 115 117
e 115 118
e 115 119
e 115 120
e 115 121
e 115 122
e 115 123
e 115 124
e 115 125
e 115 126
e 115 128
e 115 161
e 115 172
e 116 117
e 116 118
e 116 119
e 116 120
e 116 121
e 116 122
e 116 123
e 116 124
e 116 125
e 116 126
e 116 143
e 116 163
e 116 174
e 116 187
e 116 199
e 117 118
e 117 119
e 117 120
e 117 121
e 117 122
e 117 123
e 117 124
e 117 125
e 117 126
e 117 151
e 117 164
e 117 200
e 118 119
e 118 120
e 118 121
e 118 122
e 118 123
e 118 124
e 118 125
e 118 126
e 118 131
e 118 144
e 118 152
e 118 165
e 118 175
e 119 120
e 119 121
e 119 122
e 119 123
e 119 124
e 119 125
e 119 126
e 119 132
e 119 153
e 119 188
e 119 201
e 120 121
e 120 122
e 120 123
e 120 124
e 120 125
e 120 126
e 120 133
e 120 145
e 120 154
e 120 166
e 120 176
e 120 189
e 120 202
e 121 122
e 121 123
e 121 124
e 121 125
e 121 126
e 121 134
e 121 155
e 121 177
e 121 190
e 122 123
e 122 124
e 122 125
e 122 126
e 122 135
e 122 178
e 122 191
e 122 203
e 123 124
e 123 125
e 123 126
e 123 146
e 123 168
e 123 179
e 123 205
e 124 125
e 124 126
e 124 137
e 124 147
e 124 157
e 124 169
e 124 180
e 124 193
e 124 206
e 125 126
e 125 138
e 125 181
e 125 194
e 125 207
e 126 148
e 126 158
e 126 170
e 126 182
e 126 195
e 126 208
e 127 128
e 127 129
e 127 130
e 127 131
e 127 132
e 127 133
e 127 134
e 127 135
e 127 136
e 127 137
e 127 138
e 127 140
e 127 150
e 127 185
e 128 129
e 128 130
e 128 131
e 128 132
e 128 133
e 128 134
e 128 135
e 128 136
e 128 137
e 128 138
e 128 161
e 128 172
e 129 130
e 129 131
e 129 132
e 129 133
e 129 134
e 129 135
e 129 136
e 129 137
e 129 138
e 129 141
e 129 162
e 129 173
e 130 131
e 130 132
e 130 133
e 130 134
e 130 135
e 130 136
e 130 137
e 130 138
e 130 142
e 130 186
e 130 198
e 131 132
e 131 133
e 131 134
e 131 135
e 131 136
e 131 137
e 131 138
e 131 144
e 131 152
e 131 165
e 131 175
e 132 133
e 132 134
e 132 135
e 132 136
e 132 137
e 132 138
e 132 153
e 132 188
e 132 201
e 133 134
e 133 135
e 133 136
e 133 137
e 133 138
e 133 145
e 133 154
e 133 166
e 133 176
e 133 189
e 133 202
e 134 135
e 134 136
e 134 137
e 134 138
e 134 155
e 134 177
e 134 190
e 135 136
e 135 137
e 135 138
e 135 178
e 135 191
e 135 203
e 136 137
e 136 138
e 136 156
e 136 167
e 136 192
e 136 204
e 137 138
e 137 147
e 137 157
e 137 169
e 137 180
e 137 193
e 137 206
e 138 181
e 138 194
e 138 207
e 139 140
e 139 141
e 139 142
e 139 143
e 139 144
e 139 145
e 139 146
e 139 147
e 139 148
e 139 149
e 139 159
e 139 171
e 139 183
e 139 196
e 140 141
e 140 142
e 140 143
e 140 144
e 140 145
e 140 146
e 140 147
e 140 148
e 140 150
e 140 185
e 141 142
e 141 143
e 141 144
e 141 145
e 141 146
e 141 147
e 141 148
e 141 162
e 141 173
e 142 143
e 142 144
e 142 145
e 142 146
e 142 147
e 142 148
e 142 186
e 142 198
e 143 144
e 143 145
e 143 146
e 143 147
e 143 148
e 143 163
e 143 174
e 143 187
e 143 199
e 144 145
e 144 146
e 144 147
e 144 148
e 144 152
e 144 165
e 144 175
e 145 146
e 145 147
e 145 148
e 145 154
e 145 166
e 145 176
e 145 189
e 145 202
e 146 147
e 146 148
e 146 168
e 146 179
e 146 205
e 147 148
e 147 157
e 147 169
e 147 180
e 147 193
e 147 206
e 148 158
e 148 170
e 148 182
e 148 195
e 148 208
e 149 150
e 149 151
e 149 152
e 149 153
e 149 154
e 149 155
e 149 156
e 149 157
e 149 158
e 149 159
e 149 171
e 149 183
e 149 196
e 150 151
e 150 152
e 150 153
e 150 154
e 150 155
e 150 156
e 150 157
e 150 158
e 150 185
e 151 152
e 151 153
e 151 154
e 151 155
e 151 156
e 151 157
e 151 158
e 151 164
e 151 200
e 152 153
e 152 154
e 152 155
e 152 156
e 152 157
e 152 158
e 152 165
e 152 175
e 153 154
e 153 155
e 153 156
e 153 157
e 153 158
e 153 188
e 153 201
e 154 155
e 154 156
e 154 157
e 154 158
e 154 166
e 154 176
e 154 189
e 154 202
e 155 156
e 155 157
e 155 158
e 155 177
e 155 190
e 156 157
e 156 158
e 156 167
e 156 192
e 156 204
e 157 158
e 157 169
e 157 180
e 157 193
e 157 206
e 158 170
e 158 182
e 158 195
e 158 208
e 159 160
e 159 161
e 159 162
e 159 163
e 159 164
e 159 165
e 159 166
e 159 167
e 159 168
e 159 169
e 159 170
e 159 171
e 159 183
e 159 196
e 160 161
e 160 162
e 160 163
e 160 164
e 160 165
e 160 166
e 160 167
e 160 168
e 160 169
e 160 170
e 160 184
e 160 197
e 161 162
e 161 163
e 161 164
e 161 165
e 161 166
e 161 167
e 161 168
e 161 169
e 161 170
e 161 172
e 162 163
e 162 164
e 162 165
e 162 166
e 162 167
e 162 168
e 162 169
e 162 170
e 162 173
e 163 164
e 163 165
e 163 166
e 163 167
e 163 168
e 163 169
e 163 170
e 163 174
e 163 187
e 163 199
e 164 165
e 164 166
e 164 167
e 164 168
e 164 169
e 164 170
e 164 200
e 165 166
e 165 167
e 165 168
e 165 169
e 165 170
e 165 175
e 166 167
e 166 168
e 166 169
e 166 170
e 166 176
e 166 189
e 166 202
e 167 168
e 167 169
e 167 170
e 167 192
e 167 204
e 168 169
e 168 170
e 168 179
e 168 205
e 169 170
e 169 180
e 169 193
e 169 206
e 170 182
e 170 195
e 170 208
e 171 172
e 171 173
e 171 174
e 171 175
e 171 176
e 171 177
e 171 178
e 171 179
e 171 180
e 171 181
e 171 182
e 171 183
e 171 196
e 172 173
e 172 174
e 172 175
e 172 176
e 172 177
e 172 178
e 172 179
e 172 180
e 172 181
e 172 182
e 173 174
e 173 175
e 173 176
e 173 177
e 173 178
e 173 179
e 173 180
e 173 181
e 173 182
e 174 175
e 174 176
e 174 177
e 174 178
e 174 179
e 174 180
e 174 181
e 174 182
e 174 187
e 174 199
e 175 176
e 175 177
e 175 178
e 175 179
e 175 180
e 175 181
e 175 182
e 176 177
e 176 178
e 176 179
e 176 180
e 176 181
e 176 182
e 176 189
e 176 202
e 177 178
e 177 179
e 177 180
e 177 181
e 177 182
e 177 190
e 178 179
e 178 180
e 178 181
e 178 182
e 178 191
e 178 203
e 179 180
e 179 181
e 179 182
e 179 205
e 180 181
e 180 182
e 180 193
e 180 206
e 181 182
e 181 194
e 181 207
e 182 195
e 182 208
e 183 184
e 183 185
e 183 186
e 183 187
e 183 188
e 183 189
e 183 190
e 183 191
e 183 192
e 183 193
e 183 194
e 183 195
e 183 196
e 184 185
e 184 186
e 184 187
e 184 188
e 184 189
e 184 190
e 184 191
e 184 192
e 184 193
e 184 194
e 184 195
e 184 197
e 185 186
e 185 187
e 185 188
e 185 189
e 185 190
e 185 191
e 185 192
e 185 193
e 185 194
e 185 195
e 186 187
e 186 188
e 186 189
e 186 190
e 186 191
e 186 192
e 186 193
e 186 194
e 186 195
e 186 198
e 187 188
e 187 189
e 187 190
e 187 191
e 187 192
e 187 193
e 187 194
e 187 195
e 187 199
e 188 189
e 188 190
e 188 191
e 188 192
e 188 193
e 188 194
e 188 195
e 188 201
e 189 190
e 189 191
e 189 192
e 189 193
e 189 194
e 189 195
e 189 202
e 190 191
e 190 192
e 190 193
e 190 194
e 190 195
e 191 192
e 191 193
e 191 194
e 191 195
e 191 203
e 192 193
e 192 194
e 192 195
e 192 204
e 193 194
e 193 195
e 193 206
e 194 195
e 194 207
e 195 208
e 196 197
e 196 198
e 196 199
e 196 200
e 196 201
e 196 202
e 196 203
e 196 204
e 196 205
e 196 206
e 196 207
e 196 208
e 197 198
e 197 199
e 197 200
e 197 201
e 197 202
e 197 203
e 197 204
e 197 205
e 197 206
e 197 207
e 197 208
e 198 199
e 198 200
e 198 201
e 198 202
e 198 203
e 198 204
e 198 205
e 198 206
e 198 207
e 198 208
e 199 200
e 199 201
e 199 202
e 199 203
e 199 204
e 199 205
e 199 206
e 199 207
e 199 208
e 200 201
e 200 202
e 200 203
e 200 204
e 200 205
e 200 206
e 200 207
e 200 208
e 201 202
e 201 203
e 201 204
e 201 205
e 201 206
e 201 207
e 201 208
e 202 203
e 202 204
e 202 205
e 202 206
e 202 207
e 202 208
e 203 204
e 203 205
e 203 206
e 203 207
e 203 208
e 204 205
e 204 206
e 204 207
e 204 208
e 205 206
e 205 207
e 205 208
e 206 207
e 206 208
e 207 208
